RT is False
Default write of storage_offers_DA.csv just to have a file (but constraint should be inactive)
Reading model...
...model read.
creating competitive generators file...
...competitive generators recorded.
Loading data...
.. day-ahead data with real-time VRE data read.
Compiling instance...
...instance created.
Creating Offer Mitigation (model will solve as dispatch if TRUE)...
Solving...

Welcome to IBM(R) ILOG(R) CPLEX(R) Interactive Optimizer 12.9.0.0
  with Simplex, Mixed Integer & Barrier Optimizers
5725-A06 5725-A29 5724-Y48 5724-Y49 5724-Y54 5724-Y55 5655-Y21
Copyright IBM Corp. 1988, 2019.  All Rights Reserved.

Type 'help' for a list of available commands.
Type 'help' followed by a command name for more
information on commands.

CPLEX> Logfile 'cplex.log' closed.
Logfile 'C:\Users\llavin\Desktop\test919\logs\tmpkbmld4df.cplex.log' open.
CPLEX> New value for parallel optimization mode: -1
CPLEX> New value for mixed integer optimality gap tolerance: 0.01
CPLEX> New value for integrality tolerance: 1e-09
CPLEX> New value for feasibility tolerance: 0.01
CPLEX> New value for deterministic time limit in ticks: 75000
CPLEX> Problem 'C:\Users\llavin\Desktop\test919\logs\tmpirzvmn0x.pyomo.lp' read.
Read time = 0.05 sec. (3.04 ticks)
CPLEX> Problem name         : C:\Users\llavin\Desktop\test919\logs\tmpirzvmn0x.pyomo.lp
Objective sense      : Minimize
Variables            :   26081  [Nneg: 1,  Box: 21616,  Free: 4464]
Objective nonzeros   :    2496
Linear constraints   :   27515  [Less: 14006,  Greater: 4416,  Equal: 9093]
  Nonzeros           :   89267
  RHS nonzeros       :   12275

Variables            : Min LB: -5000.000        Max UB: 1000000.       
Objective nonzeros   : Min   : 15.73158         Max   : 124.0997       
Linear constraints   :
  Nonzeros           : Min   : 0.8500000        Max   : 3000.000       
  RHS nonzeros       : Min   : 0.04166667       Max   : 5000.000       
CPLEX> CPXPARAM_Parallel                                -1
CPXPARAM_Simplex_Tolerances_Feasibility          0.01
CPXPARAM_DetTimeLimit                            75000
CPXPARAM_MIP_Tolerances_MIPGap                   0.01
CPXPARAM_MIP_Tolerances_Integrality              1.0000000000000001e-09
Parallel mode: opportunistic, using up to 32 threads for concurrent optimization.
Tried aggregator 1 time.
LP Presolve eliminated 21353 rows and 15461 columns.
Aggregator did 768 substitutions.
Reduced LP has 5394 rows, 9852 columns, and 31823 nonzeros.
Presolve time = 0.05 sec. (30.48 ticks)
Symmetry aggregator did 5565 additional substitutions.

Iteration log . . .
Iteration:     1   Dual objective     =             0.000000
Perturbation started.
Iteration:   101   Dual objective     =             0.000000
Iteration:   334   Dual objective     =             1.168035
Iteration:   578   Dual objective     =             1.702374
Iteration:   826   Dual objective     =             1.846291
Iteration:  1027   Dual objective     =             1.963315
Iteration:  1306   Dual objective     =             2.013254
Iteration:  1553   Dual objective     =             2.042403
Iteration:  1769   Dual objective     =             2.062185
Iteration:  1957   Dual objective     =             2.079927
Iteration:  2155   Dual objective     =             2.093378
Iteration:  2432   Dual objective     =             2.107823
Iteration:  2828   Dual objective     =           663.814901
Removing perturbation.
Dual superbasis not built.
Using devex.

Primal simplex solved model.


Primal simplex - Optimal:  Objective =  8.7851527758e+02
Solution time =    0.16 sec.  Iterations = 1562 (1175)
Deterministic time = 78.51 ticks  (503.24 ticks/sec)

CPLEX> Solution written to file 'C:\Users\llavin\Desktop\test919\logs\tmpcuegxzt6.cplex.sol'.
CPLEX> Exporting results... 
...storage offer mitigation file created
Converting model to MPEC...
...converted
NOTE: initial MIP solve with only storage competitive to get feasible solution
Solving...

Welcome to IBM(R) ILOG(R) CPLEX(R) Interactive Optimizer 12.9.0.0
  with Simplex, Mixed Integer & Barrier Optimizers
5725-A06 5725-A29 5724-Y48 5724-Y49 5724-Y54 5724-Y55 5655-Y21
Copyright IBM Corp. 1988, 2019.  All Rights Reserved.

Type 'help' for a list of available commands.
Type 'help' followed by a command name for more
information on commands.

CPLEX> Logfile 'cplex.log' closed.
Logfile 'C:\Users\llavin\Desktop\test919\logs\tmpc8pmabme.cplex.log' open.
CPLEX> New value for parallel optimization mode: -1
CPLEX> New value for mixed integer optimality gap tolerance: 0.01
CPLEX> New value for integrality tolerance: 1e-09
CPLEX> New value for feasibility tolerance: 0.01
CPLEX> New value for deterministic time limit in ticks: 75000
CPLEX> Problem 'C:\Users\llavin\Desktop\test919\logs\tmpwknpmxpx.pyomo.lp' read.
Read time = 0.25 sec. (14.78 ticks)
CPLEX> Problem name         : C:\Users\llavin\Desktop\test919\logs\tmpwknpmxpx.pyomo.lp
Objective sense      : Maximize
Variables            :   53805  [Nneg: 1,  Box: 22000,  Free: 4464,
                                 Binary: 27340]
Objective nonzeros   :    8984
Linear constraints   :  123205  [Less: 41346,  Greater: 59096,  Equal: 22763]
  Nonzeros           :  291805
  RHS nonzeros       :   67403

Variables            : Min LB: -5000.000        Max UB: 1000000.       
Objective nonzeros   : Min   : 0.04166667       Max   : 834.6000       
Linear constraints   :
  Nonzeros           : Min   : 0.04166667       Max   : 1000000.       
  RHS nonzeros       : Min   : 0.04166667       Max   : 1000000.       
CPLEX> CPXPARAM_Parallel                                -1
CPXPARAM_Simplex_Tolerances_Feasibility          0.01
CPXPARAM_DetTimeLimit                            75000
CPXPARAM_MIP_Tolerances_MIPGap                   0.01
CPXPARAM_MIP_Tolerances_Integrality              1.0000000000000001e-09
Tried aggregator 3 times.
MIP Presolve eliminated 88603 rows and 18907 columns.
MIP Presolve added 3406 rows and 0 columns.
MIP Presolve modified 24903 coefficients.
Aggregator did 13029 substitutions.
Reduced MIP has 24979 rows, 21317 columns, and 71255 nonzeros.
Reduced MIP has 8422 binaries, 0 generals, 0 SOSs, and 0 indicators.
Presolve time = 0.30 sec. (173.98 ticks)
Probing fixed 399 vars, tightened 2852 bounds.
Probing time = 1.20 sec. (884.10 ticks)
Tried aggregator 2 times.
MIP Presolve eliminated 898 rows and 798 columns.
MIP Presolve modified 2196 coefficients.
Aggregator did 35 substitutions.
Reduced MIP has 24046 rows, 20484 columns, and 68556 nonzeros.
Reduced MIP has 8023 binaries, 0 generals, 0 SOSs, and 0 indicators.
Presolve time = 0.11 sec. (66.87 ticks)
Probing fixed 0 vars, tightened 1 bounds.
Probing time = 0.05 sec. (20.38 ticks)
Clique table members: 6336.
MIP emphasis: balance optimality and feasibility.
MIP search method: dynamic search.
Parallel mode: opportunistic, using up to 32 threads.
Root relaxation solution time = 0.36 sec. (462.87 ticks)

        Nodes                                         Cuts/
   Node  Left     Objective  IInf  Best Integer    Best Bound    ItCnt     Gap

      0     0     1552.7494   626                   1552.7494     5363         
*     0+    0                         1552.7494     1552.7494             0.00%
      0     0        cutoff           1552.7494     1552.7494     5363    0.00%
Elapsed time = 3.69 sec. (2679.19 ticks, tree = 0.01 MB, solutions = 1)

Root node processing (before b&c):
  Real time             =    3.70 sec. (2681.02 ticks)
Parallel b&c, 32 threads:
  Real time             =    0.00 sec. (0.00 ticks)
  Sync time (average)   =    0.00 sec.
  Wait time (average)   =    0.00 sec.
                          ------------
Total (root+branch&cut) =    3.70 sec. (2681.02 ticks)

Solution pool: 1 solution saved.

MIP - Integer optimal solution:  Objective =  1.5527493764e+03
Solution time =    3.72 sec.  Iterations = 5363  Nodes = 0
Deterministic time = 2681.18 ticks  (720.94 ticks/sec)

CPLEX> Incumbent solution written to file 'C:\Users\llavin\Desktop\test919\logs\tmpao5sm4s6.cplex.sol'.
CPLEX> NOTE: no warmstart specified for MIP iteration, default behavior is true
NOTE: resolving with all competitive generators using storage-only solution to warmstart
Solving...

Welcome to IBM(R) ILOG(R) CPLEX(R) Interactive Optimizer 12.9.0.0
  with Simplex, Mixed Integer & Barrier Optimizers
5725-A06 5725-A29 5724-Y48 5724-Y49 5724-Y54 5724-Y55 5655-Y21
Copyright IBM Corp. 1988, 2019.  All Rights Reserved.

Type 'help' for a list of available commands.
Type 'help' followed by a command name for more
information on commands.

CPLEX> Logfile 'cplex.log' closed.
Logfile 'C:\Users\llavin\Desktop\test919\logs\tmpoezuyk8f.cplex.log' open.
CPLEX> New value for parallel optimization mode: -1
CPLEX> New value for mixed integer optimality gap tolerance: 0.01
CPLEX> New value for integrality tolerance: 1e-09
CPLEX> New value for feasibility tolerance: 0.01
CPLEX> New value for deterministic time limit in ticks: 75000
CPLEX> Problem 'C:\Users\llavin\Desktop\test919\logs\tmpckctwk7z.pyomo.lp' read.
Read time = 0.27 sec. (14.81 ticks)
CPLEX> MIP start file 'C:\Users\llavin\Desktop\test919\logs\tmptj9xjzvo.cplex.mst' read.
CPLEX> Problem name         : C:\Users\llavin\Desktop\test919\logs\tmpckctwk7z.pyomo.lp
Objective sense      : Maximize
Variables            :   54525  [Nneg: 1,  Box: 22720,  Free: 4464,
                                 Binary: 27340]
Objective nonzeros   :    9680
Linear constraints   :  123205  [Less: 41346,  Greater: 59096,  Equal: 22763]
  Nonzeros           :  291805
  RHS nonzeros       :   67403

Variables            : Min LB: -5000.000        Max UB: 1000000.       
Objective nonzeros   : Min   : 0.04166667       Max   : 786.9167       
Linear constraints   :
  Nonzeros           : Min   : 0.04166667       Max   : 1000000.       
  RHS nonzeros       : Min   : 0.04166667       Max   : 1000000.       
CPLEX> CPXPARAM_Parallel                                -1
CPXPARAM_Simplex_Tolerances_Feasibility          0.01
CPXPARAM_DetTimeLimit                            75000
CPXPARAM_MIP_Tolerances_MIPGap                   0.01
CPXPARAM_MIP_Tolerances_Integrality              1.0000000000000001e-09
Warning:  No solution found from 1 MIP starts.
Retaining values of one MIP start for possible repair.
Tried aggregator 3 times.
MIP Presolve eliminated 88603 rows and 19627 columns.
MIP Presolve added 3406 rows and 0 columns.
MIP Presolve modified 24903 coefficients.
Aggregator did 13029 substitutions.
Reduced MIP has 24979 rows, 21317 columns, and 71255 nonzeros.
Reduced MIP has 8422 binaries, 0 generals, 0 SOSs, and 0 indicators.
Presolve time = 0.30 sec. (174.34 ticks)
Probing fixed 399 vars, tightened 2852 bounds.
Probing time = 1.19 sec. (884.10 ticks)
Tried aggregator 2 times.
MIP Presolve eliminated 898 rows and 798 columns.
MIP Presolve modified 2196 coefficients.
Aggregator did 35 substitutions.
Reduced MIP has 24046 rows, 20484 columns, and 68556 nonzeros.
Reduced MIP has 8023 binaries, 0 generals, 0 SOSs, and 0 indicators.
Presolve time = 0.09 sec. (66.87 ticks)
Probing fixed 0 vars, tightened 1 bounds.
Probing time = 0.05 sec. (20.38 ticks)
Clique table members: 6336.
MIP emphasis: balance optimality and feasibility.
MIP search method: dynamic search.
Parallel mode: opportunistic, using up to 32 threads.
Root relaxation solution time = 0.28 sec. (223.04 ticks)

        Nodes                                         Cuts/
   Node  Left     Objective  IInf  Best Integer    Best Bound    ItCnt     Gap

      0     0    87102.9529  1613                  87102.9529     5369         
      0     0    80582.2812   547                   Cuts: 580     5659         
      0     0    80244.2954   497                   Cuts: 144     5730         
      0     0    80244.2954   482                    Cuts: 79     5778         
      0     0    80244.2954   457                    Cuts: 77     5820         
      0     0    80244.2954   432                    Cuts: 74     5862         
      0     0    77773.0825   383                    Cuts: 82     6019         
      0     0    76547.6479   391                    Cuts: 68     6190         
      0     0    72636.8966   382                    Cuts: 75     6224         
      0     0    72636.8413   378                    Cuts: 43     6243         
      0     0    72636.8413   374                    Cuts: 29     6251         
      0     0    72636.8413   373                    Cuts: 29     6258         
Repair heuristic found nothing.
      0     5    infeasible                        39442.8204     7048         
Elapsed time = 11.45 sec. (6880.82 ticks, tree = 0.02 MB, solutions = 0)
    489    81    15703.3583   298                  18641.4502    11078         
    754   345    13248.6158   294                  18641.4502    17290         
   1433   471    13984.9121   296                  18641.4502    43142         
   2165   470    infeasible                        18641.4502    42115         
   2785   689     4793.7923   269                  18641.4502    58593         
   3708  1452     -137.8572   253                  18641.4502    62979         
   4995  2822    11942.3648   237                  18641.4502    63483         
   6507  3067     6535.6593   258                  18641.4502    63497         
   7507  5013     8813.3845   247                  18641.4502    63979         
* 10883  7267      integral     0     1552.7494    18641.4502    64968     --- 
  11099  6867    11020.6226   296     1552.7494    18641.4502    67199     --- 
Elapsed time = 28.52 sec. (9983.06 ticks, tree = 202.35 MB, solutions = 3)
  13391  8257    17716.0298   226     1552.7494    17716.0298    82849     --- 
  15976  7899     6743.7595   131     1552.7494    17716.0298    81086     --- 
  17304  8371     6743.7595   199     1552.7494    17716.0298    83163     --- 
  17481  8249        cutoff           1552.7494    17716.0298    82843     --- 
  17494  8256    17716.0298   239     1552.7494    17716.0298    83139     --- 
  17506  8254        cutoff           1552.7494    17716.0298    82864     --- 
  17508  8254        cutoff           1552.7494    17716.0298    83130     --- 
* 17509  8753      integral     0     1552.7494     1552.7494    98278    0.00%

GUB cover cuts applied:  2
Clique cuts applied:  8
Cover cuts applied:  58
Implied bound cuts applied:  33
Flow cuts applied:  955
Mixed integer rounding cuts applied:  162
Gomory fractional cuts applied:  73

Root node processing (before b&c):
  Real time             =   10.31 sec. (6874.03 ticks)
Parallel b&c, 32 threads:
  Real time             =   33.38 sec. (12219.73 ticks)
  Sync time (average)   =    2.17 sec.
  Wait time (average)   =    0.00 sec.
                          ------------
Total (root+branch&cut) =   43.69 sec. (19093.77 ticks)

Solution pool: 3 solutions saved.

MIP - Integer optimal solution:  Objective =  1.5527493769e+03
Solution time =   43.72 sec.  Iterations = 98278  Nodes = 17509
Deterministic time = 19093.92 ticks  (436.75 ticks/sec)

CPLEX> Incumbent solution written to file 'C:\Users\llavin\Desktop\test919\logs\tmpcjssxmur.cplex.sol'.
CPLEX> Exporting results... 
